
Welcome to IBM(R) ILOG(R) CPLEX(R) Interactive Optimizer 22.1.1.0
  with Simplex, Mixed Integer & Barrier Optimizers
5725-A06 5725-A29 5724-Y48 5724-Y49 5724-Y54 5724-Y55 5655-Y21
Copyright IBM Corp. 1988, 2022.  All Rights Reserved.

Type 'help' for a list of available commands.
Type 'help' followed by a command name for more
information on commands.

CPLEX> Selected objective sense:  MINIMIZE
Selected objective  name:  00000000
Selected RHS        name:  RHS1
Selected bound      name:  BOUND
Problem 'ee.mps' read.
Read time = 0.02 sec. (3.14 ticks)
CPLEX> New value for time limit in seconds: 7200
CPLEX> New value for parallel optimization mode: -1
CPLEX> New value for default parallel thread count: 40
CPLEX> New value for mixed integer optimality gap tolerance: 1e-13
CPLEX> Version identifier: 22.1.1.0 | 2022-11-28 | 9160aff4d
CPXPARAM_Threads                                 40
CPXPARAM_Parallel                                -1
CPXPARAM_TimeLimit                               7200
CPXPARAM_MIP_Tolerances_MIPGap                   1e-13
Found incumbent of value 0.000000 after 0.00 sec. (0.31 ticks)
Tried aggregator 2 times.
MIP Presolve eliminated 180 rows and 2745 columns.
MIP Presolve modified 5862 coefficients.
Aggregator did 713 substitutions.
Reduced MIP has 3623 rows, 7739 columns, and 28643 nonzeros.
Reduced MIP has 7739 binaries, 0 generals, 0 SOSs, and 0 indicators.
Presolve time = 0.06 sec. (68.55 ticks)
Probing time = 0.03 sec. (5.29 ticks)
Tried aggregator 1 time.
Detecting symmetries...
Reduced MIP has 3623 rows, 7739 columns, and 28643 nonzeros.
Reduced MIP has 7739 binaries, 0 generals, 0 SOSs, and 0 indicators.
Presolve time = 0.03 sec. (21.83 ticks)
Probing time = 0.02 sec. (5.09 ticks)
Clique table members: 18551.
MIP emphasis: balance optimality and feasibility.
MIP search method: dynamic search.
Parallel mode: opportunistic, using up to 40 threads.
Root relaxation solution time = 0.09 sec. (74.02 ticks)

        Nodes                                         Cuts/
   Node  Left     Objective  IInf  Best Integer    Best Bound    ItCnt     Gap

*     0+    0                            0.0000  -1.31000e+13              --- 
*     0+    0                      -5.50000e+12  -1.31000e+13           138.18%
      0     0  -1.30900e+13    51  -5.50000e+12  -1.30900e+13     2021  138.00%
*     0+    0                      -1.30900e+13  -1.30900e+13             0.00%
*     0+    0                      -1.30900e+13  -1.30900e+13             0.00%
      0     0  -1.30900e+13    95  -1.30900e+13      Cuts: 60     3567    0.00%
*     0+    0                      -1.30900e+13  -1.30900e+13             0.00%
*     0+    0                      -1.30900e+13  -1.30900e+13             0.00%
      0     0  -1.30900e+13   134  -1.30900e+13      Cuts: 48     3782    0.00%
*     0+    0                      -1.30900e+13  -1.30900e+13             0.00%

Repeating presolve.
Tried aggregator 3 times.
MIP Presolve eliminated 1436 rows and 3416 columns.
MIP Presolve added 4 rows and 0 columns.
MIP Presolve modified 23 coefficients.
Aggregator did 163 substitutions.
Reduced MIP has 2028 rows, 4152 columns, and 14856 nonzeros.
Reduced MIP has 4152 binaries, 0 generals, 0 SOSs, and 0 indicators.
Presolve time = 0.06 sec. (61.52 ticks)
Probing fixed 72 vars, tightened 0 bounds.
Probing time = 0.04 sec. (15.65 ticks)
Tried aggregator 2 times.
MIP Presolve eliminated 55 rows and 93 columns.
Aggregator did 17 substitutions.
Reduced MIP has 1956 rows, 4040 columns, and 14408 nonzeros.
Reduced MIP has 4040 binaries, 0 generals, 0 SOSs, and 0 indicators.
Presolve time = 0.03 sec. (23.70 ticks)
Probing time = 0.02 sec. (8.35 ticks)
Tried aggregator 1 time.
Detecting symmetries...
MIP Presolve eliminated 3 rows and 3 columns.
Reduced MIP has 1953 rows, 4037 columns, and 14399 nonzeros.
Reduced MIP has 4037 binaries, 0 generals, 0 SOSs, and 0 indicators.
Presolve time = 0.02 sec. (16.63 ticks)
Represolve time = 0.19 sec. (145.79 ticks)
Probing time = 0.02 sec. (5.04 ticks)
Clique table members: 9680.
MIP emphasis: balance optimality and feasibility.
MIP search method: dynamic search.
Parallel mode: opportunistic, using up to 40 threads.
Root relaxation solution time = 0.06 sec. (50.16 ticks)

        Nodes                                         Cuts/
   Node  Left     Objective  IInf  Best Integer    Best Bound    ItCnt     Gap

*     0+    0                      -1.30900e+13  -1.30900e+13             0.00%
      0     0  -1.30900e+13   105  -1.30900e+13  -1.30900e+13     5472    0.00%
      0     0  -1.30900e+13   125  -1.30900e+13      Cuts: 69     5716    0.00%
      0     0  -1.30900e+13   150  -1.30900e+13      Cuts: 53     5784    0.00%
      0     2  -1.30900e+13   119  -1.30900e+13  -1.30900e+13     5784    0.00%
Elapsed time = 1.84 sec. (1146.20 ticks, tree = 0.02 MB, solutions = 8)
    980    60        cutoff        -1.30900e+13  -1.30900e+13    55448    0.00%
   1684     9  -1.30900e+13    92  -1.30900e+13  -1.30900e+13   139017    0.00%

Clique cuts applied:  22
Cover cuts applied:  345
Flow cuts applied:  7
Mixed integer rounding cuts applied:  4
Zero-half cuts applied:  8
Lift and project cuts applied:  12
Gomory fractional cuts applied:  19

Root node processing (before b&c):
  Real time             =    1.48 sec. (1145.54 ticks)
Parallel b&c, 40 threads:
  Real time             =    1.48 sec. (515.34 ticks)
  Sync time (average)   =    0.65 sec.
  Wait time (average)   =    0.00 sec.
                          ------------
Total (root+branch&cut) =    2.95 sec. (1660.88 ticks)

Solution pool: 9 solutions saved.

MIP - Integer optimal solution:  Objective = -1.3089999991e+13
Solution time =    3.04 sec.  Iterations = 144320  Nodes = 1702
Deterministic time = 1660.91 ticks  (546.55 ticks/sec)

CPLEX> Solution 'p10' written to file 'ee.sol'.
CPLEX> 